AMPL/dea.out
Gurobi 9.1.1: optimal solution; objective 0.9835582016
6 simplex iterations
==========================================================
Unit U01 eff: 0.983558
positive weights:	Doctors: 0.013889	HomeAss: 0.000004	Patients: 0.000179	recipes: 0.007683	
 Peer Comparison:
U01: 0.983558	U02: 0.880186	U03: 0.941254	U04: 1.000000	U05: 0.910482	U06: 0.941156	U07: 0.823319	U08: 0.945165	U09: 1.000000	U10: 0.970616	U11: 0.247614	U12: 0.278727	U13: 0.918704	U14: 0.948876	U15: 0.833285	U16: 0.271407	U17: 0.945546	U18: 0.863351	U19: 0.972753	U20: 0.938090	U21: 1.000000	
 Competitors (Dual weights):
U04: 0.217976	U09: 0.094137	U21: 0.672511	
Gurobi 9.1.1: optimal solution; objective 1
3 simplex iterations
==========================================================
Unit U02 eff: 1.000000
positive weights:	Doctors: 0.012208	beds: 0.000772	Patients: 0.000832	
 Peer Comparison:
U01: 0.680119	U02: 1.000000	U03: 0.756473	U04: 1.000000	U05: 0.659284	U06: 0.713830	U07: 0.608773	U08: 0.697973	U09: 0.767632	U10: 0.753548	U11: 0.635259	U12: 0.808933	U13: 0.785240	U14: 0.733495	U15: 0.772345	U16: 0.975385	U17: 0.787492	U18: 0.742198	U19: 0.780936	U20: 0.823857	U21: 0.914037	
 Competitors (Dual weights):
U02: 1.000000	U04: 0.000000	
Gurobi 9.1.1: optimal solution; objective 0.9412539207
5 simplex iterations
==========================================================
Unit U03 eff: 0.941254
positive weights:	Doctors: 0.015152	HomeAss: 0.000004	Patients: 0.000196	recipes: 0.008382	
 Peer Comparison:
U01: 0.983558	U02: 0.880186	U03: 0.941254	U04: 1.000000	U05: 0.910482	U06: 0.941156	U07: 0.823319	U08: 0.945165	U09: 1.000000	U10: 0.970616	U11: 0.247614	U12: 0.278727	U13: 0.918704	U14: 0.948876	U15: 0.833285	U16: 0.271407	U17: 0.945546	U18: 0.863351	U19: 0.972753	U20: 0.938090	U21: 1.000000	
 Competitors (Dual weights):
U04: 0.463278	U09: 0.236447	U21: 0.263519	
Gurobi 9.1.1: optimal solution; objective 1
==========================================================
Unit U04 eff: 1.000000
positive weights:	Doctors: 0.018519	HomeAss: 0.000005	Patients: 0.000239	recipes: 0.010245	
 Peer Comparison:
U01: 0.983558	U02: 0.880186	U03: 0.941254	U04: 1.000000	U05: 0.910482	U06: 0.941156	U07: 0.823319	U08: 0.945165	U09: 1.000000	U10: 0.970616	U11: 0.247614	U12: 0.278727	U13: 0.918704	U14: 0.948876	U15: 0.833285	U16: 0.271407	U17: 0.945546	U18: 0.863351	U19: 0.972753	U20: 0.938090	U21: 1.000000	
 Competitors (Dual weights):
U04: 1.000000	U09: 0.000000	U21: 0.000000	
Gurobi 9.1.1: optimal solution; objective 0.9104822097
==========================================================
Unit U05 eff: 0.910482
positive weights:	Doctors: 0.014706	HomeAss: 0.000004	Patients: 0.000190	recipes: 0.008135	
 Peer Comparison:
U01: 0.983558	U02: 0.880186	U03: 0.941254	U04: 1.000000	U05: 0.910482	U06: 0.941156	U07: 0.823319	U08: 0.945165	U09: 1.000000	U10: 0.970616	U11: 0.247614	U12: 0.278727	U13: 0.918704	U14: 0.948876	U15: 0.833285	U16: 0.271407	U17: 0.945546	U18: 0.863351	U19: 0.972753	U20: 0.938090	U21: 1.000000	
 Competitors (Dual weights):
U04: 0.386789	U09: 0.246599	U21: 0.304670	
Gurobi 9.1.1: optimal solution; objective 0.9411562992
==========================================================
Unit U06 eff: 0.941156
positive weights:	Doctors: 0.014925	HomeAss: 0.000004	Patients: 0.000193	recipes: 0.008257	
 Peer Comparison:
U01: 0.983558	U02: 0.880186	U03: 0.941254	U04: 1.000000	U05: 0.910482	U06: 0.941156	U07: 0.823319	U08: 0.945165	U09: 1.000000	U10: 0.970616	U11: 0.247614	U12: 0.278727	U13: 0.918704	U14: 0.948876	U15: 0.833285	U16: 0.271407	U17: 0.945546	U18: 0.863351	U19: 0.972753	U20: 0.938090	U21: 1.000000	
 Competitors (Dual weights):
U04: 0.355840	U09: 0.441233	U21: 0.166099	
Gurobi 9.1.1: optimal solution; objective 0.8233187157
==========================================================
Unit U07 eff: 0.823319
positive weights:	Doctors: 0.012987	HomeAss: 0.000003	Patients: 0.000168	recipes: 0.007185	
 Peer Comparison:
U01: 0.983558	U02: 0.880186	U03: 0.941254	U04: 1.000000	U05: 0.910482	U06: 0.941156	U07: 0.823319	U08: 0.945165	U09: 1.000000	U10: 0.970616	U11: 0.247614	U12: 0.278727	U13: 0.918704	U14: 0.948876	U15: 0.833285	U16: 0.271407	U17: 0.945546	U18: 0.863351	U19: 0.972753	U20: 0.938090	U21: 1.000000	
 Competitors (Dual weights):
U04: 0.055791	U09: 0.738000	U21: 0.111832	
Gurobi 9.1.1: optimal solution; objective 0.9451651641
==========================================================
Unit U08 eff: 0.945165
positive weights:	Doctors: 0.012987	HomeAss: 0.000003	Patients: 0.000168	recipes: 0.007185	
 Peer Comparison:
U01: 0.983558	U02: 0.880186	U03: 0.941254	U04: 1.000000	U05: 0.910482	U06: 0.941156	U07: 0.823319	U08: 0.945165	U09: 1.000000	U10: 0.970616	U11: 0.247614	U12: 0.278727	U13: 0.918704	U14: 0.948876	U15: 0.833285	U16: 0.271407	U17: 0.945546	U18: 0.863351	U19: 0.972753	U20: 0.938090	U21: 1.000000	
 Competitors (Dual weights):
U04: 0.048158	U09: 0.238487	U21: 0.685681	
Gurobi 9.1.1: optimal solution; objective 1
==========================================================
Unit U09 eff: 1.000000
positive weights:	Doctors: 0.014286	HomeAss: 0.000004	Patients: 0.000185	recipes: 0.007903	
 Peer Comparison:
U01: 0.983558	U02: 0.880186	U03: 0.941254	U04: 1.000000	U05: 0.910482	U06: 0.941156	U07: 0.823319	U08: 0.945165	U09: 1.000000	U10: 0.970616	U11: 0.247614	U12: 0.278727	U13: 0.918704	U14: 0.948876	U15: 0.833285	U16: 0.271407	U17: 0.945546	U18: 0.863351	U19: 0.972753	U20: 0.938090	U21: 1.000000	
 Competitors (Dual weights):
U04: 0.000000	U09: 1.000000	U21: 0.000000	
Gurobi 9.1.1: optimal solution; objective 1
6 simplex iterations
==========================================================
Unit U10 eff: 1.000000
positive weights:	Doctors: 0.002444	beds: 0.001680	HomeAss: 0.000356	
 Peer Comparison:
U01: 0.180781	U02: 0.145553	U03: 0.208909	U04: 0.033663	U05: 0.189054	U06: 0.300243	U07: 0.505247	U08: 0.363895	U09: 0.794974	U10: 1.000000	U11: 0.434834	U12: 0.405560	U13: 0.759438	U14: 0.873466	U15: 0.990674	U16: 0.757704	U17: 0.347227	U18: 0.147978	U19: 0.501079	U20: 1.000000	U21: 0.667288	
 Competitors (Dual weights):
U10: 1.000000	U20: 0.000000	
Gurobi 9.1.1: optimal solution; objective 0.7191352033
3 simplex iterations
==========================================================
Unit U11 eff: 0.719135
positive weights:	Doctors: 0.009073	beds: 0.000521	HomeAss: 0.000087	Patients: 0.000582	
 Peer Comparison:
U01: 0.728658	U02: 0.971326	U03: 0.820068	U04: 1.000000	U05: 0.723773	U06: 0.815901	U07: 0.764070	U08: 0.779129	U09: 1.000000	U10: 0.990225	U11: 0.719135	U12: 0.862693	U13: 0.862903	U14: 0.835946	U15: 0.832389	U16: 1.000000	U17: 0.810183	U18: 0.719493	U19: 0.815438	U20: 0.884978	U21: 0.948276	
 Competitors (Dual weights):
U04: 0.113482	U09: 0.336625	U16: 0.399953	
Gurobi 9.1.1: optimal solution; objective 0.8626925193
==========================================================
Unit U12 eff: 0.862693
positive weights:	Doctors: 0.010513	beds: 0.000604	HomeAss: 0.000100	Patients: 0.000675	
 Peer Comparison:
U01: 0.728658	U02: 0.971326	U03: 0.820068	U04: 1.000000	U05: 0.723773	U06: 0.815901	U07: 0.764070	U08: 0.779129	U09: 1.000000	U10: 0.990225	U11: 0.719135	U12: 0.862693	U13: 0.862903	U14: 0.835946	U15: 0.832389	U16: 1.000000	U17: 0.810183	U18: 0.719493	U19: 0.815438	U20: 0.884978	U21: 0.948276	
 Competitors (Dual weights):
U04: 0.173381	U09: 0.156406	U16: 0.603382	
Gurobi 9.1.1: optimal solution; objective 0.9347670597
10 simplex iterations
==========================================================
Unit U13 eff: 0.934767
positive weights:	Doctors: 0.011102	beds: 0.000533	HomeAss: 0.000118	recipes: 0.007388	
 Peer Comparison:
U01: 0.669556	U02: 0.756671	U03: 0.598963	U04: 0.448171	U05: 0.561791	U06: 0.636885	U07: 0.701587	U08: 0.782321	U09: 0.926804	U10: 1.000000	U11: 0.197938	U12: 0.177484	U13: 0.934767	U14: 0.996079	U15: 0.890946	U16: 0.170862	U17: 0.877980	U18: 0.830842	U19: 0.958064	U20: 1.000000	U21: 1.000000	
 Competitors (Dual weights):
U10: 0.184829	U20: 0.075147	U21: 0.713998	
Gurobi 9.1.1: optimal solution; objective 0.9960794272
==========================================================
Unit U14 eff: 0.996079
positive weights:	Doctors: 0.010629	beds: 0.000510	HomeAss: 0.000113	recipes: 0.007073	
 Peer Comparison:
U01: 0.669556	U02: 0.756671	U03: 0.598963	U04: 0.448171	U05: 0.561791	U06: 0.636885	U07: 0.701587	U08: 0.782321	U09: 0.926804	U10: 1.000000	U11: 0.197938	U12: 0.177484	U13: 0.934767	U14: 0.996079	U15: 0.890946	U16: 0.170862	U17: 0.877980	U18: 0.830842	U19: 0.958064	U20: 1.000000	U21: 1.000000	
 Competitors (Dual weights):
U10: 0.259331	U20: 0.268951	U21: 0.540600	
Gurobi 9.1.1: optimal solution; objective 1
4 simplex iterations
==========================================================
Unit U15 eff: 1.000000
positive weights:	beds: 0.012500	HomeAss: 0.001042	
 Peer Comparison:
U01: 0.080438	U02: 0.100473	U03: 0.091667	U04: 0.014506	U05: 0.081899	U06: 0.131005	U07: 0.226846	U08: 0.171500	U09: 0.362007	U10: 0.482167	U11: 0.214838	U12: 0.212713	U13: 0.485450	U14: 0.544048	U15: 1.000000	U16: 0.776961	U17: 0.206506	U18: 0.133503	U19: 0.333333	U20: 0.966463	U21: 0.526549	
 Competitors (Dual weights):
U15: 1.000000	
Gurobi 9.1.1: optimal solution; objective 1
2 simplex iterations
==========================================================
Unit U16 eff: 1.000000
positive weights:	beds: 0.014706	Patients: 0.000881	
 Peer Comparison:
U01: 0.091206	U02: 0.510738	U03: 0.094290	U04: 0.112560	U05: 0.076527	U06: 0.086281	U07: 0.085406	U08: 0.121824	U09: 0.115222	U10: 0.144109	U11: 0.133095	U12: 0.207263	U13: 0.339501	U14: 0.298704	U15: 0.772863	U16: 1.000000	U17: 0.286684	U18: 0.620516	U19: 0.368822	U20: 0.770087	U21: 0.605481	
 Competitors (Dual weights):
U16: 1.000000	
Gurobi 9.1.1: optimal solution; objective 0.9493421053
7 simplex iterations
==========================================================
Unit U17 eff: 0.949342
positive weights:	Doctors: 0.012500	recipes: 0.008553	
 Peer Comparison:
U01: 0.940789	U02: 0.824802	U03: 0.839713	U04: 0.772904	U05: 0.825077	U06: 0.847604	U07: 0.773069	U08: 0.924129	U09: 0.938346	U10: 0.939649	U11: 0.098922	U12: 0.099030	U13: 0.920728	U14: 0.969298	U15: 0.835373	U16: 0.091228	U17: 0.949342	U18: 0.880823	U19: 0.992940	U20: 0.951220	U21: 1.000000	
 Competitors (Dual weights):
U21: 0.973684	
Gurobi 9.1.1: optimal solution; objective 0.9128032123
2 simplex iterations
==========================================================
Unit U18 eff: 0.912803
positive weights:	Doctors: 0.010036	beds: 0.001295	recipes: 0.008150	
 Peer Comparison:
U01: 0.456812	U02: 0.783671	U03: 0.377212	U04: 0.306772	U05: 0.340658	U06: 0.367557	U07: 0.392309	U08: 0.561494	U09: 0.506251	U10: 0.607419	U11: 0.067600	U12: 0.075089	U13: 0.839952	U14: 0.869883	U15: 0.885272	U16: 0.096940	U17: 0.823842	U18: 0.912803	U19: 0.926369	U20: 1.000000	U21: 1.000000	
 Competitors (Dual weights):
U20: 0.695575	U21: 0.286881	
Gurobi 9.1.1: optimal solution; objective 0.9929396662
1 simplex iterations
==========================================================
Unit U19 eff: 0.992940
positive weights:	Doctors: 0.012195	recipes: 0.008344	
 Peer Comparison:
U01: 0.940789	U02: 0.824802	U03: 0.839713	U04: 0.772904	U05: 0.825077	U06: 0.847604	U07: 0.773069	U08: 0.924129	U09: 0.938346	U10: 0.939649	U11: 0.098922	U12: 0.099030	U13: 0.920728	U14: 0.969298	U15: 0.835373	U16: 0.091228	U17: 0.949342	U18: 0.880823	U19: 0.992940	U20: 0.951220	U21: 1.000000	
 Competitors (Dual weights):
U21: 1.043860	
Gurobi 9.1.1: optimal solution; objective 1
7 simplex iterations
==========================================================
Unit U20 eff: 1.000000
positive weights:	Doctors: 0.010801	beds: 0.001394	recipes: 0.008772	
 Peer Comparison:
U01: 0.456812	U02: 0.783671	U03: 0.377212	U04: 0.306772	U05: 0.340658	U06: 0.367557	U07: 0.392309	U08: 0.561494	U09: 0.506251	U10: 0.607419	U11: 0.067600	U12: 0.075089	U13: 0.839952	U14: 0.869883	U15: 0.885272	U16: 0.096940	U17: 0.823842	U18: 0.912803	U19: 0.926369	U20: 1.000000	U21: 1.000000	
 Competitors (Dual weights):
U20: 1.000000	U21: 0.000000	
Gurobi 9.1.1: optimal solution; objective 1
==========================================================
Unit U21 eff: 1.000000
positive weights:	Doctors: 0.010801	beds: 0.001394	recipes: 0.008772	
 Peer Comparison:
U01: 0.456812	U02: 0.783671	U03: 0.377212	U04: 0.306772	U05: 0.340658	U06: 0.367557	U07: 0.392309	U08: 0.561494	U09: 0.506251	U10: 0.607419	U11: 0.067600	U12: 0.075089	U13: 0.839952	U14: 0.869883	U15: 0.885272	U16: 0.096940	U17: 0.823842	U18: 0.912803	U19: 0.926369	U20: 1.000000	U21: 1.000000	
 Competitors (Dual weights):
U20: 0.000000	U21: 1.000000	
